NAME : amz2882.142393_131893.tour
COMMENT : Cost = 142393_131893
COMMENT : Found by LKH-AMZ [Keld Helsgaun] Sun May 11 15:23:40 2025
COMMENT : TW viol.: 0 #: 0
TYPE : TOUR
DIMENSION : 163
TOUR_SECTION
113
156
43
100
16
66
162
140
135
69
64
52
36
56
45
131
77
145
83
8
119
28
12
37
27
157
85
38
132
80
163
74
137
30
118
46
31
108
55
82
123
105
150
92
7
32
138
61
102
111
2
17
134
79
22
141
139
33
149
128
86
41
89
124
15
42
3
159
110
116
121
93
114
73
153
133
97
68
109
98
91
59
71
96
60
152
18
84
103
144
21
142
44
90
10
11
70
88
51
126
67
120
19
87
49
95
129
14
125
62
23
161
146
75
54
25
20
104
143
99
151
107
136
155
1
39
24
40
115
76
81
6
26
158
112
58
78
4
72
147
35
122
127
148
29
130
117
5
57
106
48
53
47
13
9
34
65
101
63
94
160
154
50
-1
EOF
